num_tasks=12;
num_machines=3;
comp_cost=[|0, 0, 0, 
|14, 16, 9,
|13, 19, 18,
|11, 13, 19,
|13, 8, 17,
|12, 13, 10,
|13, 16, 9,
|7, 15, 11,
|5, 11, 14,
|18, 12, 20,
|21, 7, 16,
|0, 0, 0|];
comm_cost=[|0,0,0,0,0,0,0,0,0,0,0,0,
|0,0,18,12,9,11,14,0,0,0,0,0,
|0,0,0,0,0,0,0,0,19,16,0,0,
|0,0,0,0,0,0,0,23,0,0,0,0,
|0,0,0,0,0,0,0,0,27,23,0,0,
|0,0,0,0,0,0,0,0,0,13,0,0,
|0,0,0,0,0,0,0,0,15,0,0,0,
|0,0,0,0,0,0,0,0,0,0,17,0,
|0,0,0,0,0,0,0,0,0,0,11,0,
|0,0,0,0,0,0,0,0,0,0,13,0,
|0,0,0,0,0,0,0,0,0,0,0,0,
|0,0,0,0,0,0,0,0,0,0,0,0|];
max_time=5000;
